33
100
80	1
64	2
60	1
57	2
56	1
53	1
52	1
51	3
49	3
48	2
46	1
45	3
43	2
42	1
41	3
39	1
38	2
37	1
35	1
34	2
33	1
32	1
31	1
27	1
26	1
24	2
21	1
20	1
18	1
16	1
14	1
12	1
10	3
